100
300
40
0 0
49 58
8 81
55 44
29 19
70 7
96 34
66 24
70 97
57 33
43 22
55 5
25 67
73 4
50 80
66 90
88 67
15 37
88 51
90 76
62 93
88 12
15 57
66 94
8 67
68 14
61 41
43 9
99 88
68 58
45 24
33 2
29 59
46 52
88 94
65 85
68 48
59 46
81 3
59 89
55 99
0 0
70
30
50
40
50
60
30
60
40
60
70
40
50
40
70
70
40
50
50
70
70
30
50
40
50
60
30
60
40
60
70
40
50
40
70
70
40
50
50
70
